(set-logic QF_IDL)
(declare-fun a () Int)
(declare-fun b () Int)
(declare-fun c () Int)
(set-info :status sat)
(assert (> (- a b) 10))
(check-sat)
(assert (> (- b c) 5))
(set-info :status sat)
(check-sat)
(assert (> (- c a) 0))
(set-info :status unsat)
(check-sat)

(exit)
